c File: data_files/evolved_graphs/g0252.col
c
c Auto generated graph
c
p edge 100 1027
e 1 4
e 1 5
e 1 9
e 1 18
e 1 34
e 1 45
e 1 68
e 1 76
e 1 77
e 1 78
e 1 84
e 1 89
e 1 91
e 1 92
e 1 93
e 1 95
e 1 97
e 1 98
e 1 99
e 1 100
e 2 4
e 2 32
e 2 36
e 2 40
e 2 45
e 2 61
e 2 66
e 2 67
e 2 75
e 2 76
e 2 79
e 2 82
e 2 83
e 2 84
e 2 86
e 2 87
e 2 89
e 2 94
e 2 96
e 2 97
e 2 99
e 2 100
e 3 4
e 3 19
e 3 22
e 3 30
e 3 35
e 3 59
e 3 69
e 3 71
e 3 80
e 3 81
e 3 82
e 3 88
e 3 90
e 3 95
e 3 97
e 3 98
e 3 99
e 3 100
e 4 15
e 4 19
e 4 22
e 4 29
e 4 30
e 4 39
e 4 60
e 4 64
e 4 71
e 4 75
e 4 81
e 4 82
e 4 87
e 4 89
e 4 90
e 4 95
e 4 97
e 4 99
e 4 100
e 5 12
e 5 15
e 5 22
e 5 25
e 5 26
e 5 45
e 5 55
e 5 65
e 5 66
e 5 67
e 5 69
e 5 70
e 5 72
e 5 73
e 5 77
e 5 78
e 5 89
e 5 94
e 5 97
e 5 100
e 6 17
e 6 29
e 6 38
e 6 39
e 6 53
e 6 56
e 6 57
e 6 63
e 6 65
e 6 67
e 6 90
e 6 92
e 6 94
e 6 98
e 6 99
e 7 24
e 7 25
e 7 26
e 7 27
e 7 28
e 7 38
e 7 41
e 7 42
e 7 46
e 7 50
e 7 55
e 7 56
e 7 61
e 7 66
e 7 68
e 7 72
e 7 74
e 7 75
e 7 77
e 7 80
e 7 82
e 7 89
e 7 90
e 7 91
e 7 95
e 7 96
e 7 98
e 7 99
e 7 100
e 8 26
e 8 27
e 8 28
e 8 30
e 8 34
e 8 36
e 8 37
e 8 43
e 8 44
e 8 45
e 8 46
e 8 50
e 8 51
e 8 57
e 8 67
e 8 71
e 8 74
e 8 75
e 8 79
e 8 81
e 8 82
e 8 85
e 8 86
e 8 94
e 8 95
e 8 96
e 8 98
e 8 99
e 8 100
e 9 17
e 9 23
e 9 24
e 9 26
e 9 30
e 9 31
e 9 33
e 9 36
e 9 37
e 9 40
e 9 43
e 9 45
e 9 46
e 9 49
e 9 50
e 9 53
e 9 57
e 9 58
e 9 59
e 9 64
e 9 65
e 9 66
e 9 67
e 9 69
e 9 74
e 9 75
e 9 78
e 9 81
e 9 84
e 9 85
e 9 87
e 9 88
e 9 89
e 9 92
e 9 93
e 9 94
e 9 95
e 9 97
e 9 98
e 9 100
e 10 23
e 10 24
e 10 26
e 10 27
e 10 28
e 10 39
e 10 44
e 10 45
e 10 46
e 10 47
e 10 52
e 10 58
e 10 61
e 10 62
e 10 65
e 10 66
e 10 72
e 10 73
e 10 74
e 10 76
e 10 80
e 10 84
e 10 89
e 10 94
e 10 95
e 10 97
e 10 98
e 10 99
e 10 100
e 11 18
e 11 23
e 11 24
e 11 25
e 11 26
e 11 27
e 11 28
e 11 30
e 11 31
e 11 35
e 11 39
e 11 40
e 11 46
e 11 47
e 11 50
e 11 53
e 11 56
e 11 58
e 11 60
e 11 64
e 11 66
e 11 69
e 11 70
e 11 72
e 11 76
e 11 77
e 11 83
e 11 88
e 11 92
e 11 93
e 11 94
e 11 95
e 11 96
e 11 97
e 11 99
e 12 31
e 12 34
e 12 37
e 12 39
e 12 43
e 12 46
e 12 47
e 12 48
e 12 49
e 12 50
e 12 51
e 12 52
e 12 54
e 12 57
e 12 58
e 12 59
e 12 60
e 12 62
e 12 63
e 12 64
e 12 65
e 12 68
e 12 69
e 12 70
e 12 72
e 12 76
e 12 77
e 12 83
e 12 84
e 12 86
e 12 87
e 12 88
e 12 90
e 12 91
e 12 95
e 12 97
e 12 98
e 13 24
e 13 25
e 13 38
e 13 42
e 13 44
e 13 53
e 13 56
e 13 57
e 13 58
e 13 59
e 13 60
e 13 61
e 13 63
e 13 65
e 13 68
e 13 70
e 13 71
e 13 75
e 13 77
e 13 83
e 13 91
e 13 92
e 13 96
e 13 100
e 14 23
e 14 25
e 14 26
e 14 28
e 14 30
e 14 36
e 14 43
e 14 45
e 14 46
e 14 47
e 14 51
e 14 53
e 14 56
e 14 57
e 14 60
e 14 63
e 14 65
e 14 67
e 14 69
e 14 71
e 14 72
e 14 76
e 14 79
e 14 81
e 14 84
e 14 86
e 14 89
e 14 90
e 14 91
e 14 92
e 14 93
e 14 97
e 14 99
e 15 24
e 15 25
e 15 27
e 15 30
e 15 33
e 15 35
e 15 36
e 15 37
e 15 42
e 15 43
e 15 48
e 15 49
e 15 51
e 15 53
e 15 55
e 15 61
e 15 65
e 15 66
e 15 69
e 15 77
e 15 80
e 15 81
e 15 83
e 15 85
e 15 87
e 15 88
e 15 89
e 15 92
e 15 94
e 15 95
e 15 96
e 15 98
e 15 99
e 15 100
e 16 24
e 16 25
e 16 34
e 16 35
e 16 37
e 16 38
e 16 44
e 16 45
e 16 47
e 16 50
e 16 56
e 16 57
e 16 58
e 16 59
e 16 62
e 16 63
e 16 71
e 16 75
e 16 78
e 16 84
e 16 86
e 16 87
e 16 89
e 16 93
e 16 94
e 16 97
e 16 98
e 17 24
e 17 26
e 17 30
e 17 33
e 17 35
e 17 37
e 17 42
e 17 43
e 17 50
e 17 55
e 17 56
e 17 57
e 17 63
e 17 68
e 17 71
e 17 75
e 17 79
e 17 82
e 17 83
e 17 84
e 17 85
e 17 87
e 17 88
e 17 90
e 17 92
e 17 94
e 17 95
e 17 96
e 17 97
e 17 98
e 17 100
e 18 26
e 18 29
e 18 32
e 18 33
e 18 34
e 18 37
e 18 39
e 18 41
e 18 44
e 18 45
e 18 46
e 18 49
e 18 50
e 18 55
e 18 57
e 18 58
e 18 61
e 18 63
e 18 67
e 18 73
e 18 75
e 18 78
e 18 82
e 18 85
e 18 87
e 18 91
e 18 93
e 18 95
e 18 96
e 18 97
e 18 98
e 18 100
e 19 24
e 19 25
e 19 26
e 19 30
e 19 33
e 19 34
e 19 39
e 19 41
e 19 42
e 19 43
e 19 44
e 19 45
e 19 47
e 19 48
e 19 53
e 19 54
e 19 59
e 19 60
e 19 61
e 19 66
e 19 72
e 19 74
e 19 76
e 19 78
e 19 80
e 19 81
e 19 83
e 19 88
e 19 89
e 19 91
e 19 95
e 19 97
e 19 98
e 20 23
e 20 25
e 20 26
e 20 27
e 20 29
e 20 30
e 20 31
e 20 33
e 20 34
e 20 36
e 20 38
e 20 39
e 20 40
e 20 41
e 20 44
e 20 45
e 20 46
e 20 47
e 20 49
e 20 50
e 20 52
e 20 53
e 20 55
e 20 56
e 20 62
e 20 65
e 20 67
e 20 71
e 20 74
e 20 77
e 20 79
e 20 80
e 20 81
e 20 82
e 20 83
e 20 86
e 20 87
e 20 91
e 20 92
e 20 95
e 20 96
e 20 99
e 21 31
e 21 37
e 21 38
e 21 39
e 21 40
e 21 42
e 21 46
e 21 47
e 21 48
e 21 54
e 21 55
e 21 56
e 21 57
e 21 58
e 21 59
e 21 61
e 21 63
e 21 66
e 21 68
e 21 69
e 21 70
e 21 71
e 21 72
e 21 73
e 21 86
e 21 88
e 21 90
e 21 91
e 21 92
e 21 93
e 21 96
e 21 98
e 21 100
e 22 24
e 22 30
e 22 31
e 22 34
e 22 35
e 22 36
e 22 41
e 22 42
e 22 43
e 22 45
e 22 48
e 22 52
e 22 53
e 22 57
e 22 59
e 22 63
e 22 70
e 22 73
e 22 77
e 22 78
e 22 79
e 22 80
e 22 81
e 22 83
e 22 87
e 22 89
e 22 92
e 22 93
e 22 94
e 22 97
e 22 99
e 22 100
e 23 25
e 23 26
e 23 27
e 23 28
e 23 29
e 23 30
e 23 31
e 23 32
e 23 33
e 23 34
e 23 35
e 23 36
e 23 37
e 23 38
e 23 39
e 23 40
e 23 41
e 23 42
e 23 43
e 23 44
e 23 45
e 23 47
e 23 48
e 23 49
e 23 50
e 23 51
e 23 52
e 23 53
e 23 54
e 23 55
e 23 56
e 23 57
e 23 58
e 23 59
e 23 60
e 23 61
e 23 62
e 23 63
e 23 64
e 23 65
e 23 66
e 23 86
e 23 96
e 23 97
e 23 99
e 24 25
e 24 26
e 24 27
e 24 28
e 24 29
e 24 30
e 24 31
e 24 32
e 24 33
e 24 34
e 24 35
e 24 36
e 24 37
e 24 38
e 24 39
e 24 40
e 24 41
e 24 42
e 24 43
e 24 44
e 24 45
e 24 46
e 24 47
e 24 48
e 24 49
e 24 50
e 24 51
e 24 52
e 24 53
e 24 54
e 24 55
e 24 56
e 24 57
e 24 59
e 24 60
e 24 61
e 24 62
e 24 63
e 24 64
e 24 65
e 24 66
e 24 67
e 24 95
e 24 98
e 24 99
e 24 100
e 25 79
e 25 97
e 25 100
e 26 95
e 26 100
e 27 95
e 27 96
e 27 97
e 27 98
e 28 95
e 28 96
e 28 99
e 29 95
e 29 99
e 30 54
e 30 95
e 30 96
e 30 98
e 30 100
e 31 95
e 31 96
e 31 97
e 31 98
e 31 99
e 31 100
e 32 95
e 32 96
e 32 97
e 32 98
e 32 100
e 33 96
e 34 95
e 34 98
e 34 99
e 35 96
e 36 96
e 38 95
e 39 98
e 40 99
e 41 97
e 41 100
e 42 96
e 42 99
e 42 100
e 43 97
e 44 96
e 45 96
e 46 95
e 46 97
e 46 98
e 47 76
e 47 95
e 47 96
e 47 100
e 48 96
e 48 97
e 48 99
e 49 95
e 49 100
e 50 99
e 51 74
e 52 74
e 52 95
e 52 96
e 52 99
e 53 74
e 53 98
e 54 97
e 54 99
e 55 95
e 55 96
e 55 97
e 55 99
e 56 88
e 56 96
e 56 98
e 57 87
e 57 96
e 57 99
e 58 95
e 58 96
e 58 97
e 58 99
e 59 97
e 59 98
e 59 99
e 60 97
e 61 95
e 62 81
e 62 97
e 62 100
e 63 97
e 66 96
e 67 89
e 67 90
e 67 91
e 67 92
e 67 93
e 67 94
e 67 100
e 68 89
e 68 90
e 68 91
e 68 92
e 68 93
e 68 94
e 68 100
e 69 89
e 69 90
e 69 91
e 69 92
e 69 93
e 69 94
e 70 90
e 70 91
e 70 92
e 70 93
e 70 94
e 70 96
e 70 100
e 71 89
e 71 90
e 71 91
e 71 92
e 71 93
e 71 94
e 71 97
e 71 98
e 72 89
e 72 90
e 72 91
e 72 92
e 72 93
e 72 94
e 72 95
e 73 76
e 73 89
e 73 90
e 73 91
e 73 92
e 73 93
e 73 94
e 73 95
e 73 96
e 73 97
e 73 98
e 73 99
e 73 100
e 74 89
e 74 90
e 74 91
e 74 92
e 74 93
e 74 94
e 74 95
e 74 96
e 74 97
e 74 98
e 74 99
e 74 100
e 75 89
e 75 90
e 75 91
e 75 92
e 75 93
e 75 94
e 75 95
e 75 96
e 75 97
e 75 98
e 75 99
e 75 100
e 76 89
e 76 90
e 76 91
e 76 92
e 76 93
e 76 94
e 76 95
e 76 96
e 76 97
e 76 98
e 76 99
e 76 100
e 77 78
e 77 89
e 77 90
e 77 91
e 77 92
e 77 93
e 77 94
e 77 95
e 77 96
e 77 97
e 77 98
e 77 99
e 77 100
e 78 89
e 78 90
e 78 91
e 78 92
e 78 93
e 78 94
e 78 95
e 78 96
e 78 97
e 78 98
e 78 99
e 78 100
e 79 89
e 79 90
e 79 91
e 79 92
e 79 93
e 79 94
e 79 95
e 79 96
e 79 97
e 79 98
e 79 99
e 79 100
e 80 89
e 80 90
e 80 91
e 80 92
e 80 93
e 80 94
e 80 95
e 80 96
e 80 97
e 80 98
e 80 99
e 80 100
e 81 89
e 81 93
e 81 94
e 81 95
e 81 96
e 81 97
e 81 98
e 81 99
e 81 100
e 82 93
e 82 94
e 82 95
e 82 96
e 82 97
e 82 98
e 82 99
e 82 100
e 83 93
e 83 94
e 83 95
e 83 96
e 83 97
e 83 98
e 83 99
e 83 100
e 84 93
e 84 94
e 84 95
e 84 96
e 84 97
e 84 98
e 84 99
e 84 100
e 85 93
e 85 95
e 85 96
e 85 97
e 85 98
e 85 99
e 85 100
e 86 94
e 86 97
e 86 98
e 86 99
e 86 100
e 87 93
e 87 94
e 87 95
e 87 96
e 87 97
e 87 98
e 87 99
e 87 100
e 88 93
e 88 94
e 88 96
e 88 97
e 88 98
e 88 99
e 88 100
e 90 96
e 90 100
e 91 96
e 95 98
e 96 98
e 96 99
e 97 98
e 97 99
e 97 100
